18019
1 0 1 0 1 1 1 0 0 0 0 1 0 0 1 1 0 1 0 0 1 0 0 0 0 0 1 0 0 0 
6 17 6 2 6 5 4 11 6 0 26 20 17 20 4 14 17 17 5 11 2 4 26 4 26 20 2 11 5 26 15 11 6 5 20 20 0 15 4 14 17 14 15 6 15 14 26 20 17 14 15 4 14 5 6 20 14 4 4 0 0 5 0 17 11 11 15 11 26 26 6 6 11 17 15 20 26 20 4 15 20 17 6 17 4 17 2 4 20 5 2 15 2 17 2 15 2 6 5 6 6 2 14 11 2 5 4 17 14 14 14 2 2 11 11 26 0 15 11 5 11 6 5 20 6 4 5 26 17 26 0 4 11 26 2 14 4 5 20 17 11 20 20 14 14 5 11 5 2 11 